c 0.01139211654663086 (encode time in sec)
p cnf 276 1048
1 2 3 4 0
1 2 -3 5 0
1 -2 3 5 0
1 -2 -3 5 0
-1 2 3 5 0
-1 2 -3 5 0
-1 -2 3 5 0
-1 -2 -3 4 0
6 7 8 9 0
6 7 -8 10 0
6 -7 8 10 0
6 -7 -8 10 0
-6 7 8 10 0
-6 7 -8 10 0
-6 -7 8 10 0
-6 -7 -8 9 0
11 12 13 14 0
11 12 -13 15 0
11 -12 13 15 0
11 -12 -13 15 0
-11 12 13 15 0
-11 12 -13 15 0
-11 -12 13 15 0
-11 -12 -13 14 0
16 17 18 1 2 3 6 7 8 20 0
16 17 18 1 2 3 6 7 -8 19 0
16 17 18 1 2 3 6 -7 8 73 0
16 17 18 1 2 3 6 -7 -8 96 0
16 17 18 1 2 3 -6 7 8 21 0
16 17 18 1 2 3 -6 7 -8 42 0
16 17 18 1 2 3 -6 -7 8 0
16 17 18 1 2 3 -6 -7 -8 0
16 17 18 1 2 -3 6 7 8 20 0
16 17 18 1 2 -3 6 7 -8 74 0
16 17 18 1 2 -3 6 -7 8 23 0
16 17 18 1 2 -3 6 -7 -8 36 0
16 17 18 1 2 -3 -6 7 8 0
16 17 18 1 2 -3 -6 7 -8 0
16 17 18 1 2 -3 -6 -7 8 0
16 17 18 1 2 -3 -6 -7 -8 0
16 17 18 1 -2 3 6 7 8 24 0
16 17 18 1 -2 3 6 7 -8 103 0
16 17 18 1 -2 3 6 -7 8 0
16 17 18 1 -2 3 6 -7 -8 0
16 17 18 1 -2 3 -6 7 8 0
16 17 18 1 -2 3 -6 7 -8 0
16 17 18 1 -2 3 -6 -7 8 0
16 17 18 1 -2 3 -6 -7 -8 0
16 17 18 1 -2 -3 6 7 8 25 0
16 17 18 1 -2 -3 6 7 -8 87 0
16 17 18 1 -2 -3 6 -7 8 0
16 17 18 1 -2 -3 6 -7 -8 0
16 17 18 1 -2 -3 -6 7 8 0
16 17 18 1 -2 -3 -6 7 -8 0
16 17 18 1 -2 -3 -6 -7 8 0
16 17 18 1 -2 -3 -6 -7 -8 0
16 17 18 -1 2 3 6 7 8 103 0
16 17 18 -1 2 3 6 7 -8 0
16 17 18 -1 2 3 6 -7 8 0
16 17 18 -1 2 3 6 -7 -8 0
16 17 18 -1 2 3 -6 7 8 0
16 17 18 -1 2 3 -6 7 -8 0
16 17 18 -1 2 3 -6 -7 8 0
16 17 18 -1 2 3 -6 -7 -8 0
16 17 18 -1 2 -3 6 7 8 51 0
16 17 18 -1 2 -3 6 7 -8 0
16 17 18 -1 2 -3 6 -7 8 0
16 17 18 -1 2 -3 6 -7 -8 0
16 17 18 -1 2 -3 -6 7 8 0
16 17 18 -1 2 -3 -6 7 -8 0
16 17 18 -1 2 -3 -6 -7 8 0
16 17 18 -1 2 -3 -6 -7 -8 0
16 17 18 -1 -2 3 6 7 8 52 0
16 17 18 -1 -2 3 6 7 -8 0
16 17 18 -1 -2 3 6 -7 8 0
16 17 18 -1 -2 3 6 -7 -8 0
16 17 18 -1 -2 3 -6 7 8 0
16 17 18 -1 -2 3 -6 7 -8 0
16 17 18 -1 -2 3 -6 -7 8 0
16 17 18 -1 -2 3 -6 -7 -8 0
16 17 18 -1 -2 -3 6 7 8 62 0
16 17 18 -1 -2 -3 6 7 -8 0
16 17 18 -1 -2 -3 6 -7 8 0
16 17 18 -1 -2 -3 6 -7 -8 0
16 17 18 -1 -2 -3 -6 7 8 0
16 17 18 -1 -2 -3 -6 7 -8 0
16 17 18 -1 -2 -3 -6 -7 8 0
16 17 18 -1 -2 -3 -6 -7 -8 0
16 17 -18 1 2 3 6 7 8 0
16 17 -18 1 2 3 6 7 -8 26 0
16 17 -18 1 2 3 6 -7 8 81 0
16 17 -18 1 2 3 6 -7 -8 37 0
16 17 -18 1 2 3 -6 7 8 27 0
16 17 -18 1 2 3 -6 7 -8 66 0
16 17 -18 1 2 3 -6 -7 8 0
16 17 -18 1 2 3 -6 -7 -8 0
16 17 -18 1 2 -3 6 7 8 0
16 17 -18 1 2 -3 6 7 -8 57 0
16 17 -18 1 2 -3 6 -7 8 28 0
16 17 -18 1 2 -3 6 -7 -8 95 0
16 17 -18 1 2 -3 -6 7 8 87 0
16 17 -18 1 2 -3 -6 7 -8 43 0
16 17 -18 1 2 -3 -6 -7 8 0
16 17 -18 1 2 -3 -6 -7 -8 0
16 17 -18 1 -2 3 6 7 8 38 0
16 17 -18 1 -2 3 6 7 -8 103 0
16 17 -18 1 -2 3 6 -7 8 97 0
16 17 -18 1 -2 3 6 -7 -8 39 0
16 17 -18 1 -2 3 -6 7 8 43 0
16 17 -18 1 -2 3 -6 7 -8 0
16 17 -18 1 -2 3 -6 -7 8 0
16 17 -18 1 -2 3 -6 -7 -8 0
16 17 -18 1 -2 -3 6 7 8 29 0
16 17 -18 1 -2 -3 6 7 -8 71 0
16 17 -18 1 -2 -3 6 -7 8 30 0
16 17 -18 1 -2 -3 6 -7 -8 0
16 17 -18 1 -2 -3 -6 7 8 0
16 17 -18 1 -2 -3 -6 7 -8 0
16 17 -18 1 -2 -3 -6 -7 8 0
16 17 -18 1 -2 -3 -6 -7 -8 0
16 17 -18 -1 2 3 6 7 8 75 0
16 17 -18 -1 2 3 6 7 -8 107 0
16 17 -18 -1 2 3 6 -7 8 106 0
16 17 -18 -1 2 3 6 -7 -8 0
16 17 -18 -1 2 3 -6 7 8 0
16 17 -18 -1 2 3 -6 7 -8 0
16 17 -18 -1 2 3 -6 -7 8 0
16 17 -18 -1 2 3 -6 -7 -8 0
16 17 -18 -1 2 -3 6 7 8 79 0
16 17 -18 -1 2 -3 6 7 -8 54 0
16 17 -18 -1 2 -3 6 -7 8 0
16 17 -18 -1 2 -3 6 -7 -8 0
16 17 -18 -1 2 -3 -6 7 8 0
16 17 -18 -1 2 -3 -6 7 -8 0
16 17 -18 -1 2 -3 -6 -7 8 0
16 17 -18 -1 2 -3 -6 -7 -8 0
16 17 -18 -1 -2 3 6 7 8 93 0
16 17 -18 -1 -2 3 6 7 -8 76 0
16 17 -18 -1 -2 3 6 -7 8 48 0
16 17 -18 -1 -2 3 6 -7 -8 0
16 17 -18 -1 -2 3 -6 7 8 0
16 17 -18 -1 -2 3 -6 7 -8 0
16 17 -18 -1 -2 3 -6 -7 8 0
16 17 -18 -1 -2 3 -6 -7 -8 0
16 17 -18 -1 -2 -3 6 7 8 77 0
16 17 -18 -1 -2 -3 6 7 -8 0
16 17 -18 -1 -2 -3 6 -7 8 0
16 17 -18 -1 -2 -3 6 -7 -8 0
16 17 -18 -1 -2 -3 -6 7 8 0
16 17 -18 -1 -2 -3 -6 7 -8 0
16 17 -18 -1 -2 -3 -6 -7 8 0
16 17 -18 -1 -2 -3 -6 -7 -8 0
16 -17 18 1 2 3 6 7 8 0
16 -17 18 1 2 3 6 7 -8 0
16 -17 18 1 2 3 6 -7 8 0
16 -17 18 1 2 3 6 -7 -8 45 0
16 -17 18 1 2 3 -6 7 8 29 0
16 -17 18 1 2 3 -6 7 -8 101 0
16 -17 18 1 2 3 -6 -7 8 62 0
16 -17 18 1 2 3 -6 -7 -8 0
16 -17 18 1 2 -3 6 7 8 0
16 -17 18 1 2 -3 6 7 -8 0
16 -17 18 1 2 -3 6 -7 8 26 0
16 -17 18 1 2 -3 6 -7 -8 55 0
16 -17 18 1 2 -3 -6 7 8 92 0
16 -17 18 1 2 -3 -6 7 -8 67 0
16 -17 18 1 2 -3 -6 -7 8 23 0
16 -17 18 1 2 -3 -6 -7 -8 0
16 -17 18 1 -2 3 6 7 8 0
16 -17 18 1 -2 3 6 7 -8 98 0
16 -17 18 1 -2 3 6 -7 8 53 0
16 -17 18 1 -2 3 6 -7 -8 31 0
16 -17 18 1 -2 3 -6 7 8 67 0
16 -17 18 1 -2 3 -6 7 -8 0
16 -17 18 1 -2 3 -6 -7 8 0
16 -17 18 1 -2 3 -6 -7 -8 0
16 -17 18 1 -2 -3 6 7 8 0
16 -17 18 1 -2 -3 6 7 -8 92 0
16 -17 18 1 -2 -3 6 -7 8 21 0
16 -17 18 1 -2 -3 6 -7 -8 21 0
16 -17 18 1 -2 -3 -6 7 8 91 0
16 -17 18 1 -2 -3 -6 7 -8 0
16 -17 18 1 -2 -3 -6 -7 8 0
16 -17 18 1 -2 -3 -6 -7 -8 0
16 -17 18 -1 2 3 6 7 8 117 0
16 -17 18 -1 2 3 6 7 -8 81 0
16 -17 18 -1 2 3 6 -7 8 72 0
16 -17 18 -1 2 3 6 -7 -8 50 0
16 -17 18 -1 2 3 -6 7 8 0
16 -17 18 -1 2 3 -6 7 -8 0
16 -17 18 -1 2 3 -6 -7 8 0
16 -17 18 -1 2 3 -6 -7 -8 0
16 -17 18 -1 2 -3 6 7 8 59 0
16 -17 18 -1 2 -3 6 7 -8 78 0
16 -17 18 -1 2 -3 6 -7 8 56 0
16 -17 18 -1 2 -3 6 -7 -8 112 0
16 -17 18 -1 2 -3 -6 7 8 0
16 -17 18 -1 2 -3 -6 7 -8 0
16 -17 18 -1 2 -3 -6 -7 8 0
16 -17 18 -1 2 -3 -6 -7 -8 0
16 -17 18 -1 -2 3 6 7 8 102 0
16 -17 18 -1 -2 3 6 7 -8 70 0
16 -17 18 -1 -2 3 6 -7 8 0
16 -17 18 -1 -2 3 6 -7 -8 0
16 -17 18 -1 -2 3 -6 7 8 0
16 -17 18 -1 -2 3 -6 7 -8 0
16 -17 18 -1 -2 3 -6 -7 8 0
16 -17 18 -1 -2 3 -6 -7 -8 0
16 -17 18 -1 -2 -3 6 7 8 77 0
16 -17 18 -1 -2 -3 6 7 -8 33 0
16 -17 18 -1 -2 -3 6 -7 8 0
16 -17 18 -1 -2 -3 6 -7 -8 0
16 -17 18 -1 -2 -3 -6 7 8 0
16 -17 18 -1 -2 -3 -6 7 -8 0
16 -17 18 -1 -2 -3 -6 -7 8 0
16 -17 18 -1 -2 -3 -6 -7 -8 0
16 -17 -18 1 2 3 6 7 8 0
16 -17 -18 1 2 3 6 7 -8 0
16 -17 -18 1 2 3 6 -7 8 0
16 -17 -18 1 2 3 6 -7 -8 35 0
16 -17 -18 1 2 3 -6 7 8 21 0
16 -17 -18 1 2 3 -6 7 -8 57 0
16 -17 -18 1 2 3 -6 -7 8 56 0
16 -17 -18 1 2 3 -6 -7 -8 115 0
16 -17 -18 1 2 -3 6 7 8 0
16 -17 -18 1 2 -3 6 7 -8 0
16 -17 -18 1 2 -3 6 -7 8 26 0
16 -17 -18 1 2 -3 6 -7 -8 119 0
16 -17 -18 1 2 -3 -6 7 8 56 0
16 -17 -18 1 2 -3 -6 7 -8 44 0
16 -17 -18 1 2 -3 -6 -7 8 26 0
16 -17 -18 1 2 -3 -6 -7 -8 0
16 -17 -18 1 -2 3 6 7 8 0
16 -17 -18 1 -2 3 6 7 -8 0
16 -17 -18 1 -2 3 6 -7 8 100 0
16 -17 -18 1 -2 3 6 -7 -8 82 0
16 -17 -18 1 -2 3 -6 7 8 44 0
16 -17 -18 1 -2 3 -6 7 -8 82 0
16 -17 -18 1 -2 3 -6 -7 8 23 0
16 -17 -18 1 -2 3 -6 -7 -8 0
16 -17 -18 1 -2 -3 6 7 8 0
16 -17 -18 1 -2 -3 6 7 -8 0
16 -17 -18 1 -2 -3 6 -7 8 23 0
16 -17 -18 1 -2 -3 6 -7 -8 31 0
16 -17 -18 1 -2 -3 -6 7 8 90 0
16 -17 -18 1 -2 -3 -6 7 -8 108 0
16 -17 -18 1 -2 -3 -6 -7 8 0
16 -17 -18 1 -2 -3 -6 -7 -8 0
16 -17 -18 -1 2 3 6 7 8 0
16 -17 -18 -1 2 3 6 7 -8 109 0
16 -17 -18 -1 2 3 6 -7 8 113 0
16 -17 -18 -1 2 3 6 -7 -8 82 0
16 -17 -18 -1 2 3 -6 7 8 49 0
16 -17 -18 -1 2 3 -6 7 -8 112 0
16 -17 -18 -1 2 3 -6 -7 8 0
16 -17 -18 -1 2 3 -6 -7 -8 0
16 -17 -18 -1 2 -3 6 7 8 0
16 -17 -18 -1 2 -3 6 7 -8 33 0
16 -17 -18 -1 2 -3 6 -7 8 99 0
16 -17 -18 -1 2 -3 6 -7 -8 98 0
16 -17 -18 -1 2 -3 -6 7 8 33 0
16 -17 -18 -1 2 -3 -6 7 -8 0
16 -17 -18 -1 2 -3 -6 -7 8 0
16 -17 -18 -1 2 -3 -6 -7 -8 0
16 -17 -18 -1 -2 3 6 7 8 88 0
16 -17 -18 -1 -2 3 6 7 -8 63 0
16 -17 -18 -1 -2 3 6 -7 8 70 0
16 -17 -18 -1 -2 3 6 -7 -8 0
16 -17 -18 -1 -2 3 -6 7 8 0
16 -17 -18 -1 -2 3 -6 7 -8 0
16 -17 -18 -1 -2 3 -6 -7 8 0
16 -17 -18 -1 -2 3 -6 -7 -8 0
16 -17 -18 -1 -2 -3 6 7 8 87 0
16 -17 -18 -1 -2 -3 6 7 -8 56 0
16 -17 -18 -1 -2 -3 6 -7 8 48 0
16 -17 -18 -1 -2 -3 6 -7 -8 0
16 -17 -18 -1 -2 -3 -6 7 8 0
16 -17 -18 -1 -2 -3 -6 7 -8 0
16 -17 -18 -1 -2 -3 -6 -7 8 0
16 -17 -18 -1 -2 -3 -6 -7 -8 0
-16 17 18 1 2 3 6 7 8 0
-16 17 18 1 2 3 6 7 -8 0
-16 17 18 1 2 3 6 -7 8 0
-16 17 18 1 2 3 6 -7 -8 0
-16 17 18 1 2 3 -6 7 8 0
-16 17 18 1 2 3 -6 7 -8 42 0
-16 17 18 1 2 3 -6 -7 8 56 0
-16 17 18 1 2 3 -6 -7 -8 115 0
-16 17 18 1 2 -3 6 7 8 0
-16 17 18 1 2 -3 6 7 -8 0
-16 17 18 1 2 -3 6 -7 8 0
-16 17 18 1 2 -3 6 -7 -8 36 0
-16 17 18 1 2 -3 -6 7 8 109 0
-16 17 18 1 2 -3 -6 7 -8 115 0
-16 17 18 1 2 -3 -6 -7 8 29 0
-16 17 18 1 2 -3 -6 -7 -8 0
-16 17 18 1 -2 3 6 7 8 0
-16 17 18 1 -2 3 6 7 -8 0
-16 17 18 1 -2 3 6 -7 8 0
-16 17 18 1 -2 3 6 -7 -8 50 0
-16 17 18 1 -2 3 -6 7 8 80 0
-16 17 18 1 -2 3 -6 7 -8 94 0
-16 17 18 1 -2 3 -6 -7 8 29 0
-16 17 18 1 -2 3 -6 -7 -8 0
-16 17 18 1 -2 -3 6 7 8 0
-16 17 18 1 -2 -3 6 7 -8 0
-16 17 18 1 -2 -3 6 -7 8 0
-16 17 18 1 -2 -3 6 -7 -8 21 0
-16 17 18 1 -2 -3 -6 7 8 104 0
-16 17 18 1 -2 -3 -6 7 -8 56 0
-16 17 18 1 -2 -3 -6 -7 8 88 0
-16 17 18 1 -2 -3 -6 -7 -8 39 0
-16 17 18 -1 2 3 6 7 8 0
-16 17 18 -1 2 3 6 7 -8 114 0
-16 17 18 -1 2 3 6 -7 8 84 0
-16 17 18 -1 2 3 6 -7 -8 31 0
-16 17 18 -1 2 3 -6 7 8 115 0
-16 17 18 -1 2 3 -6 7 -8 105 0
-16 17 18 -1 2 3 -6 -7 8 76 0
-16 17 18 -1 2 3 -6 -7 -8 0
-16 17 18 -1 2 -3 6 7 8 0
-16 17 18 -1 2 -3 6 7 -8 0
-16 17 18 -1 2 -3 6 -7 8 21 0
-16 17 18 -1 2 -3 6 -7 -8 103 0
-16 17 18 -1 2 -3 -6 7 8 52 0
-16 17 18 -1 2 -3 -6 7 -8 0
-16 17 18 -1 2 -3 -6 -7 8 0
-16 17 18 -1 2 -3 -6 -7 -8 0
-16 17 18 -1 -2 3 6 7 8 0
-16 17 18 -1 -2 3 6 7 -8 40 0
-16 17 18 -1 -2 3 6 -7 8 63 0
-16 17 18 -1 -2 3 6 -7 -8 41 0
-16 17 18 -1 -2 3 -6 7 8 38 0
-16 17 18 -1 -2 3 -6 7 -8 0
-16 17 18 -1 -2 3 -6 -7 8 0
-16 17 18 -1 -2 3 -6 -7 -8 0
-16 17 18 -1 -2 -3 6 7 8 89 0
-16 17 18 -1 -2 -3 6 7 -8 54 0
-16 17 18 -1 -2 -3 6 -7 8 100 0
-16 17 18 -1 -2 -3 6 -7 -8 58 0
-16 17 18 -1 -2 -3 -6 7 8 0
-16 17 18 -1 -2 -3 -6 7 -8 0
-16 17 18 -1 -2 -3 -6 -7 8 0
-16 17 18 -1 -2 -3 -6 -7 -8 0
-16 17 -18 1 2 3 6 7 8 0
-16 17 -18 1 2 3 6 7 -8 0
-16 17 -18 1 2 3 6 -7 8 0
-16 17 -18 1 2 3 6 -7 -8 0
-16 17 -18 1 2 3 -6 7 8 0
-16 17 -18 1 2 3 -6 7 -8 0
-16 17 -18 1 2 3 -6 -7 8 21 0
-16 17 -18 1 2 3 -6 -7 -8 80 0
-16 17 -18 1 2 -3 6 7 8 0
-16 17 -18 1 2 -3 6 7 -8 0
-16 17 -18 1 2 -3 6 -7 8 0
-16 17 -18 1 2 -3 6 -7 -8 0
-16 17 -18 1 2 -3 -6 7 8 0
-16 17 -18 1 2 -3 -6 7 -8 120 0
-16 17 -18 1 2 -3 -6 -7 8 31 0
-16 17 -18 1 2 -3 -6 -7 -8 101 0
-16 17 -18 1 -2 3 6 7 8 0
-16 17 -18 1 -2 3 6 7 -8 0
-16 17 -18 1 -2 3 6 -7 8 0
-16 17 -18 1 -2 3 6 -7 -8 0
-16 17 -18 1 -2 3 -6 7 8 0
-16 17 -18 1 -2 3 -6 7 -8 82 0
-16 17 -18 1 -2 3 -6 -7 8 32 0
-16 17 -18 1 -2 3 -6 -7 -8 39 0
-16 17 -18 1 -2 -3 6 7 8 0
-16 17 -18 1 -2 -3 6 7 -8 0
-16 17 -18 1 -2 -3 6 -7 8 0
-16 17 -18 1 -2 -3 6 -7 -8 0
-16 17 -18 1 -2 -3 -6 7 8 111 0
-16 17 -18 1 -2 -3 -6 7 -8 60 0
-16 17 -18 1 -2 -3 -6 -7 8 86 0
-16 17 -18 1 -2 -3 -6 -7 -8 0
-16 17 -18 -1 2 3 6 7 8 0
-16 17 -18 -1 2 3 6 7 -8 0
-16 17 -18 -1 2 3 6 -7 8 106 0
-16 17 -18 -1 2 3 6 -7 -8 39 0
-16 17 -18 -1 2 3 -6 7 8 115 0
-16 17 -18 -1 2 3 -6 7 -8 105 0
-16 17 -18 -1 2 3 -6 -7 8 100 0
-16 17 -18 -1 2 3 -6 -7 -8 0
-16 17 -18 -1 2 -3 6 7 8 0
-16 17 -18 -1 2 -3 6 7 -8 0
-16 17 -18 -1 2 -3 6 -7 8 0
-16 17 -18 -1 2 -3 6 -7 -8 105 0
-16 17 -18 -1 2 -3 -6 7 8 46 0
-16 17 -18 -1 2 -3 -6 7 -8 94 0
-16 17 -18 -1 2 -3 -6 -7 8 64 0
-16 17 -18 -1 2 -3 -6 -7 -8 0
-16 17 -18 -1 -2 3 6 7 8 0
-16 17 -18 -1 -2 3 6 7 -8 0
-16 17 -18 -1 -2 3 6 -7 8 100 0
-16 17 -18 -1 -2 3 6 -7 -8 83 0
-16 17 -18 -1 -2 3 -6 7 8 46 0
-16 17 -18 -1 -2 3 -6 7 -8 109 0
-16 17 -18 -1 -2 3 -6 -7 8 108 0
-16 17 -18 -1 -2 3 -6 -7 -8 0
-16 17 -18 -1 -2 -3 6 7 8 89 0
-16 17 -18 -1 -2 -3 6 7 -8 56 0
-16 17 -18 -1 -2 -3 6 -7 8 97 0
-16 17 -18 -1 -2 -3 6 -7 -8 34 0
-16 17 -18 -1 -2 -3 -6 7 8 21 0
-16 17 -18 -1 -2 -3 -6 7 -8 62 0
-16 17 -18 -1 -2 -3 -6 -7 8 0
-16 17 -18 -1 -2 -3 -6 -7 -8 0
-16 -17 18 1 2 3 6 7 8 0
-16 -17 18 1 2 3 6 7 -8 0
-16 -17 18 1 2 3 6 -7 8 0
-16 -17 18 1 2 3 6 -7 -8 0
-16 -17 18 1 2 3 -6 7 8 0
-16 -17 18 1 2 3 -6 7 -8 0
-16 -17 18 1 2 3 -6 -7 8 0
-16 -17 18 1 2 3 -6 -7 -8 0
-16 -17 18 1 2 -3 6 7 8 0
-16 -17 18 1 2 -3 6 7 -8 0
-16 -17 18 1 2 -3 6 -7 8 0
-16 -17 18 1 2 -3 6 -7 -8 0
-16 -17 18 1 2 -3 -6 7 8 0
-16 -17 18 1 2 -3 -6 7 -8 0
-16 -17 18 1 2 -3 -6 -7 8 0
-16 -17 18 1 2 -3 -6 -7 -8 57 0
-16 -17 18 1 -2 3 6 7 8 0
-16 -17 18 1 -2 3 6 7 -8 0
-16 -17 18 1 -2 3 6 -7 8 0
-16 -17 18 1 -2 3 6 -7 -8 0
-16 -17 18 1 -2 3 -6 7 8 0
-16 -17 18 1 -2 3 -6 7 -8 0
-16 -17 18 1 -2 3 -6 -7 8 27 0
-16 -17 18 1 -2 3 -6 -7 -8 82 0
-16 -17 18 1 -2 -3 6 7 8 0
-16 -17 18 1 -2 -3 6 7 -8 0
-16 -17 18 1 -2 -3 6 -7 8 0
-16 -17 18 1 -2 -3 6 -7 -8 0
-16 -17 18 1 -2 -3 -6 7 8 111 0
-16 -17 18 1 -2 -3 -6 7 -8 108 0
-16 -17 18 1 -2 -3 -6 -7 8 93 0
-16 -17 18 1 -2 -3 -6 -7 -8 31 0
-16 -17 18 -1 2 3 6 7 8 0
-16 -17 18 -1 2 3 6 7 -8 0
-16 -17 18 -1 2 3 6 -7 8 0
-16 -17 18 -1 2 3 6 -7 -8 0
-16 -17 18 -1 2 3 -6 7 8 64 0
-16 -17 18 -1 2 3 -6 7 -8 105 0
-16 -17 18 -1 2 3 -6 -7 8 63 0
-16 -17 18 -1 2 3 -6 -7 -8 93 0
-16 -17 18 -1 2 -3 6 7 8 0
-16 -17 18 -1 2 -3 6 7 -8 0
-16 -17 18 -1 2 -3 6 -7 8 0
-16 -17 18 -1 2 -3 6 -7 -8 0
-16 -17 18 -1 2 -3 -6 7 8 54 0
-16 -17 18 -1 2 -3 -6 7 -8 31 0
-16 -17 18 -1 2 -3 -6 -7 8 121 0
-16 -17 18 -1 2 -3 -6 -7 -8 76 0
-16 -17 18 -1 -2 3 6 7 8 0
-16 -17 18 -1 -2 3 6 7 -8 0
-16 -17 18 -1 -2 3 6 -7 8 76 0
-16 -17 18 -1 -2 3 6 -7 -8 34 0
-16 -17 18 -1 -2 3 -6 7 8 93 0
-16 -17 18 -1 -2 3 -6 7 -8 68 0
-16 -17 18 -1 -2 3 -6 -7 8 69 0
-16 -17 18 -1 -2 3 -6 -7 -8 112 0
-16 -17 18 -1 -2 -3 6 7 8 62 0
-16 -17 18 -1 -2 -3 6 7 -8 0
-16 -17 18 -1 -2 -3 6 -7 8 97 0
-16 -17 18 -1 -2 -3 6 -7 -8 65 0
-16 -17 18 -1 -2 -3 -6 7 8 31 0
-16 -17 18 -1 -2 -3 -6 7 -8 31 0
-16 -17 18 -1 -2 -3 -6 -7 8 0
-16 -17 18 -1 -2 -3 -6 -7 -8 0
-16 -17 -18 1 2 3 6 7 8 0
-16 -17 -18 1 2 3 6 7 -8 0
-16 -17 -18 1 2 3 6 -7 8 0
-16 -17 -18 1 2 3 6 -7 -8 0
-16 -17 -18 1 2 3 -6 7 8 0
-16 -17 -18 1 2 3 -6 7 -8 0
-16 -17 -18 1 2 3 -6 -7 8 0
-16 -17 -18 1 2 3 -6 -7 -8 43 0
-16 -17 -18 1 2 -3 6 7 8 0
-16 -17 -18 1 2 -3 6 7 -8 0
-16 -17 -18 1 2 -3 6 -7 8 0
-16 -17 -18 1 2 -3 6 -7 -8 0
-16 -17 -18 1 2 -3 -6 7 8 0
-16 -17 -18 1 2 -3 -6 7 -8 0
-16 -17 -18 1 2 -3 -6 -7 8 0
-16 -17 -18 1 2 -3 -6 -7 -8 101 0
-16 -17 -18 1 -2 3 6 7 8 0
-16 -17 -18 1 -2 3 6 7 -8 0
-16 -17 -18 1 -2 3 6 -7 8 0
-16 -17 -18 1 -2 3 6 -7 -8 0
-16 -17 -18 1 -2 3 -6 7 8 0
-16 -17 -18 1 -2 3 -6 7 -8 0
-16 -17 -18 1 -2 3 -6 -7 8 0
-16 -17 -18 1 -2 3 -6 -7 -8 85 0
-16 -17 -18 1 -2 -3 6 7 8 0
-16 -17 -18 1 -2 -3 6 7 -8 0
-16 -17 -18 1 -2 -3 6 -7 8 0
-16 -17 -18 1 -2 -3 6 -7 -8 0
-16 -17 -18 1 -2 -3 -6 7 8 0
-16 -17 -18 1 -2 -3 -6 7 -8 0
-16 -17 -18 1 -2 -3 -6 -7 8 110 0
-16 -17 -18 1 -2 -3 -6 -7 -8 94 0
-16 -17 -18 -1 2 3 6 7 8 0
-16 -17 -18 -1 2 3 6 7 -8 0
-16 -17 -18 -1 2 3 6 -7 8 0
-16 -17 -18 -1 2 3 6 -7 -8 0
-16 -17 -18 -1 2 3 -6 7 8 0
-16 -17 -18 -1 2 3 -6 7 -8 0
-16 -17 -18 -1 2 3 -6 -7 8 47 0
-16 -17 -18 -1 2 3 -6 -7 -8 61 0
-16 -17 -18 -1 2 -3 6 7 8 0
-16 -17 -18 -1 2 -3 6 7 -8 0
-16 -17 -18 -1 2 -3 6 -7 8 0
-16 -17 -18 -1 2 -3 6 -7 -8 0
-16 -17 -18 -1 2 -3 -6 7 8 0
-16 -17 -18 -1 2 -3 -6 7 -8 39 0
-16 -17 -18 -1 2 -3 -6 -7 8 115 0
-16 -17 -18 -1 2 -3 -6 -7 -8 116 0
-16 -17 -18 -1 -2 3 6 7 8 0
-16 -17 -18 -1 -2 3 6 7 -8 0
-16 -17 -18 -1 -2 3 6 -7 8 0
-16 -17 -18 -1 -2 3 6 -7 -8 0
-16 -17 -18 -1 -2 3 -6 7 8 0
-16 -17 -18 -1 -2 3 -6 7 -8 109 0
-16 -17 -18 -1 -2 3 -6 -7 8 60 0
-16 -17 -18 -1 -2 3 -6 -7 -8 118 0
-16 -17 -18 -1 -2 -3 6 7 8 0
-16 -17 -18 -1 -2 -3 6 7 -8 0
-16 -17 -18 -1 -2 -3 6 -7 8 48 0
-16 -17 -18 -1 -2 -3 6 -7 -8 34 0
-16 -17 -18 -1 -2 -3 -6 7 8 21 0
-16 -17 -18 -1 -2 -3 -6 7 -8 99 0
-16 -17 -18 -1 -2 -3 -6 -7 8 20 0
-16 -17 -18 -1 -2 -3 -6 -7 -8 20 0
122 123 124 11 12 13 16 17 18 125 0
122 123 124 11 12 13 16 17 -18 201 0
122 123 124 11 12 13 16 -17 18 232 0
122 123 124 11 12 13 16 -17 -18 183 0
122 123 124 11 12 13 -16 17 18 194 0
122 123 124 11 12 13 -16 17 -18 152 0
122 123 124 11 12 13 -16 -17 18 268 0
122 123 124 11 12 13 -16 -17 -18 169 0
122 123 124 11 12 -13 16 17 18 126 0
122 123 124 11 12 -13 16 17 -18 202 0
122 123 124 11 12 -13 16 -17 18 224 0
122 123 124 11 12 -13 16 -17 -18 227 0
122 123 124 11 12 -13 -16 17 18 200 0
122 123 124 11 12 -13 -16 17 -18 237 0
122 123 124 11 12 -13 -16 -17 18 138 0
122 123 124 11 12 -13 -16 -17 -18 234 0
122 123 124 11 -12 13 16 17 18 127 0
122 123 124 11 -12 13 16 17 -18 184 0
122 123 124 11 -12 13 16 -17 18 250 0
122 123 124 11 -12 13 16 -17 -18 216 0
122 123 124 11 -12 13 -16 17 18 234 0
122 123 124 11 -12 13 -16 17 -18 138 0
122 123 124 11 -12 13 -16 -17 18 269 0
122 123 124 11 -12 13 -16 -17 -18 227 0
122 123 124 11 -12 -13 16 17 18 128 0
122 123 124 11 -12 -13 16 17 -18 149 0
122 123 124 11 -12 -13 16 -17 18 255 0
122 123 124 11 -12 -13 16 -17 -18 168 0
122 123 124 11 -12 -13 -16 17 18 200 0
122 123 124 11 -12 -13 -16 17 -18 204 0
122 123 124 11 -12 -13 -16 -17 18 227 0
122 123 124 11 -12 -13 -16 -17 -18 151 0
122 123 124 -11 12 13 16 17 18 203 0
122 123 124 -11 12 13 16 17 -18 200 0
122 123 124 -11 12 13 16 -17 18 158 0
122 123 124 -11 12 13 16 -17 -18 138 0
122 123 124 -11 12 13 -16 17 18 228 0
122 123 124 -11 12 13 -16 17 -18 152 0
122 123 124 -11 12 13 -16 -17 18 155 0
122 123 124 -11 12 13 -16 -17 -18 194 0
122 123 124 -11 12 -13 16 17 18 129 0
122 123 124 -11 12 -13 16 17 -18 138 0
122 123 124 -11 12 -13 16 -17 18 205 0
122 123 124 -11 12 -13 16 -17 -18 250 0
122 123 124 -11 12 -13 -16 17 18 163 0
122 123 124 -11 12 -13 -16 17 -18 268 0
122 123 124 -11 12 -13 -16 -17 18 225 0
122 123 124 -11 12 -13 -16 -17 -18 227 0
122 123 124 -11 -12 13 16 17 18 170 0
122 123 124 -11 -12 13 16 17 -18 177 0
122 123 124 -11 -12 13 16 -17 18 200 0
122 123 124 -11 -12 13 16 -17 -18 133 0
122 123 124 -11 -12 13 -16 17 18 176 0
122 123 124 -11 -12 13 -16 17 -18 159 0
122 123 124 -11 -12 13 -16 -17 18 156 0
122 123 124 -11 -12 13 -16 -17 -18 266 0
122 123 124 -11 -12 -13 16 17 18 206 0
122 123 124 -11 -12 -13 16 17 -18 163 0
122 123 124 -11 -12 -13 16 -17 18 205 0
122 123 124 -11 -12 -13 16 -17 -18 166 0
122 123 124 -11 -12 -13 -16 17 18 269 0
122 123 124 -11 -12 -13 -16 17 -18 199 0
122 123 124 -11 -12 -13 -16 -17 18 268 0
122 123 124 -11 -12 -13 -16 -17 -18 213 0
122 123 -124 11 12 13 16 17 18 222 0
122 123 -124 11 12 13 16 17 -18 249 0
122 123 -124 11 12 13 16 -17 18 229 0
122 123 -124 11 12 13 16 -17 -18 207 0
122 123 -124 11 12 13 -16 17 18 194 0
122 123 -124 11 12 13 -16 17 -18 152 0
122 123 -124 11 12 13 -16 -17 18 268 0
122 123 -124 11 12 13 -16 -17 -18 169 0
122 123 -124 11 12 -13 16 17 18 240 0
122 123 -124 11 12 -13 16 17 -18 129 0
122 123 -124 11 12 -13 16 -17 18 195 0
122 123 -124 11 12 -13 16 -17 -18 227 0
122 123 -124 11 12 -13 -16 17 18 200 0
122 123 -124 11 12 -13 -16 17 -18 237 0
122 123 -124 11 12 -13 -16 -17 18 138 0
122 123 -124 11 12 -13 -16 -17 -18 234 0
122 123 -124 11 -12 13 16 17 18 209 0
122 123 -124 11 -12 13 16 17 -18 203 0
122 123 -124 11 -12 13 16 -17 18 275 0
122 123 -124 11 -12 13 16 -17 -18 216 0
122 123 -124 11 -12 13 -16 17 18 234 0
122 123 -124 11 -12 13 -16 17 -18 138 0
122 123 -124 11 -12 13 -16 -17 18 269 0
122 123 -124 11 -12 13 -16 -17 -18 227 0
122 123 -124 11 -12 -13 16 17 18 160 0
122 123 -124 11 -12 -13 16 17 -18 276 0
122 123 -124 11 -12 -13 16 -17 18 253 0
122 123 -124 11 -12 -13 16 -17 -18 168 0
122 123 -124 11 -12 -13 -16 17 18 200 0
122 123 -124 11 -12 -13 -16 17 -18 204 0
122 123 -124 11 -12 -13 -16 -17 18 227 0
122 123 -124 11 -12 -13 -16 -17 -18 151 0
122 123 -124 -11 12 13 16 17 18 184 0
122 123 -124 -11 12 13 16 17 -18 134 0
122 123 -124 -11 12 13 16 -17 18 158 0
122 123 -124 -11 12 13 16 -17 -18 138 0
122 123 -124 -11 12 13 -16 17 18 228 0
122 123 -124 -11 12 13 -16 17 -18 152 0
122 123 -124 -11 12 13 -16 -17 18 155 0
122 123 -124 -11 12 13 -16 -17 -18 194 0
122 123 -124 -11 12 -13 16 17 18 202 0
122 123 -124 -11 12 -13 16 17 -18 190 0
122 123 -124 -11 12 -13 16 -17 18 217 0
122 123 -124 -11 12 -13 16 -17 -18 250 0
122 123 -124 -11 12 -13 -16 17 18 163 0
122 123 -124 -11 12 -13 -16 17 -18 268 0
122 123 -124 -11 12 -13 -16 -17 18 225 0
122 123 -124 -11 12 -13 -16 -17 -18 227 0
122 123 -124 -11 -12 13 16 17 18 208 0
122 123 -124 -11 -12 13 16 17 -18 239 0
122 123 -124 -11 -12 13 16 -17 18 200 0
122 123 -124 -11 -12 13 16 -17 -18 133 0
122 123 -124 -11 -12 13 -16 17 18 176 0
122 123 -124 -11 -12 13 -16 17 -18 159 0
122 123 -124 -11 -12 13 -16 -17 18 156 0
122 123 -124 -11 -12 13 -16 -17 -18 266 0
122 123 -124 -11 -12 -13 16 17 18 219 0
122 123 -124 -11 -12 -13 16 17 -18 132 0
122 123 -124 -11 -12 -13 16 -17 18 205 0
122 123 -124 -11 -12 -13 16 -17 -18 166 0
122 123 -124 -11 -12 -13 -16 17 18 269 0
122 123 -124 -11 -12 -13 -16 17 -18 199 0
122 123 -124 -11 -12 -13 -16 -17 18 268 0
122 123 -124 -11 -12 -13 -16 -17 -18 213 0
122 -123 124 11 12 13 16 17 18 222 0
122 -123 124 11 12 13 16 17 -18 155 0
122 -123 124 11 12 13 16 -17 18 191 0
122 -123 124 11 12 13 16 -17 -18 130 0
122 -123 124 11 12 13 -16 17 18 210 0
122 -123 124 11 12 13 -16 17 -18 152 0
122 -123 124 11 12 13 -16 -17 18 268 0
122 -123 124 11 12 13 -16 -17 -18 169 0
122 -123 124 11 12 -13 16 17 18 240 0
122 -123 124 11 12 -13 16 17 -18 269 0
122 -123 124 11 12 -13 16 -17 18 153 0
122 -123 124 11 12 -13 16 -17 -18 181 0
122 -123 124 11 12 -13 -16 17 18 200 0
122 -123 124 11 12 -13 -16 17 -18 237 0
122 -123 124 11 12 -13 -16 -17 18 138 0
122 -123 124 11 12 -13 -16 -17 -18 234 0
122 -123 124 11 -12 13 16 17 18 209 0
122 -123 124 11 -12 13 16 17 -18 216 0
122 -123 124 11 -12 13 16 -17 18 271 0
122 -123 124 11 -12 13 16 -17 -18 170 0
122 -123 124 11 -12 13 -16 17 18 234 0
122 -123 124 11 -12 13 -16 17 -18 138 0
122 -123 124 11 -12 13 -16 -17 18 269 0
122 -123 124 11 -12 13 -16 -17 -18 227 0
122 -123 124 11 -12 -13 16 17 18 216 0
122 -123 124 11 -12 -13 16 17 -18 149 0
122 -123 124 11 -12 -13 16 -17 18 197 0
122 -123 124 11 -12 -13 16 -17 -18 164 0
122 -123 124 11 -12 -13 -16 17 18 200 0
122 -123 124 11 -12 -13 -16 17 -18 204 0
122 -123 124 11 -12 -13 -16 -17 18 227 0
122 -123 124 11 -12 -13 -16 -17 -18 151 0
122 -123 124 -11 12 13 16 17 18 216 0
122 -123 124 -11 12 13 16 17 -18 272 0
122 -123 124 -11 12 13 16 -17 18 147 0
122 -123 124 -11 12 13 16 -17 -18 138 0
122 -123 124 -11 12 13 -16 17 18 228 0
122 -123 124 -11 12 13 -16 17 -18 152 0
122 -123 124 -11 12 13 -16 -17 18 155 0
122 -123 124 -11 12 13 -16 -17 -18 194 0
122 -123 124 -11 12 -13 16 17 18 269 0
122 -123 124 -11 12 -13 16 17 -18 238 0
122 -123 124 -11 12 -13 16 -17 18 131 0
122 -123 124 -11 12 -13 16 -17 -18 250 0
122 -123 124 -11 12 -13 -16 17 18 163 0
122 -123 124 -11 12 -13 -16 17 -18 268 0
122 -123 124 -11 12 -13 -16 -17 18 225 0
122 -123 124 -11 12 -13 -16 -17 -18 227 0
122 -123 124 -11 -12 13 16 17 18 216 0
122 -123 124 -11 -12 13 16 17 -18 179 0
122 -123 124 -11 -12 13 16 -17 18 171 0
122 -123 124 -11 -12 13 16 -17 -18 133 0
122 -123 124 -11 -12 13 -16 17 18 176 0
122 -123 124 -11 -12 13 -16 17 -18 159 0
122 -123 124 -11 -12 13 -16 -17 18 156 0
122 -123 124 -11 -12 13 -16 -17 -18 266 0
122 -123 124 -11 -12 -13 16 17 18 230 0
122 -123 124 -11 -12 -13 16 17 -18 214 0
122 -123 124 -11 -12 -13 16 -17 18 217 0
122 -123 124 -11 -12 -13 16 -17 -18 166 0
122 -123 124 -11 -12 -13 -16 17 18 269 0
122 -123 124 -11 -12 -13 -16 17 -18 199 0
122 -123 124 -11 -12 -13 -16 -17 18 268 0
122 -123 124 -11 -12 -13 -16 -17 -18 213 0
122 -123 -124 11 12 13 16 17 18 222 0
122 -123 -124 11 12 13 16 17 -18 155 0
122 -123 -124 11 12 13 16 -17 18 183 0
122 -123 -124 11 12 13 16 -17 -18 232 0
122 -123 -124 11 12 13 -16 17 18 143 0
122 -123 -124 11 12 13 -16 17 -18 259 0
122 -123 -124 11 12 13 -16 -17 18 268 0
122 -123 -124 11 12 13 -16 -17 -18 169 0
122 -123 -124 11 12 -13 16 17 18 240 0
122 -123 -124 11 12 -13 16 17 -18 269 0
122 -123 -124 11 12 -13 16 -17 18 256 0
122 -123 -124 11 12 -13 16 -17 -18 218 0
122 -123 -124 11 12 -13 -16 17 18 148 0
122 -123 -124 11 12 -13 -16 17 -18 260 0
122 -123 -124 11 12 -13 -16 -17 18 138 0
122 -123 -124 11 12 -13 -16 -17 -18 234 0
122 -123 -124 11 -12 13 16 17 18 209 0
122 -123 -124 11 -12 13 16 17 -18 216 0
122 -123 -124 11 -12 13 16 -17 18 250 0
122 -123 -124 11 -12 13 16 -17 -18 208 0
122 -123 -124 11 -12 13 -16 17 18 172 0
122 -123 -124 11 -12 13 -16 17 -18 138 0
122 -123 -124 11 -12 13 -16 -17 18 269 0
122 -123 -124 11 -12 13 -16 -17 -18 227 0
122 -123 -124 11 -12 -13 16 17 18 216 0
122 -123 -124 11 -12 -13 16 17 -18 133 0
122 -123 -124 11 -12 -13 16 -17 18 220 0
122 -123 -124 11 -12 -13 16 -17 -18 157 0
122 -123 -124 11 -12 -13 -16 17 18 171 0
122 -123 -124 11 -12 -13 -16 17 -18 204 0
122 -123 -124 11 -12 -13 -16 -17 18 227 0
122 -123 -124 11 -12 -13 -16 -17 -18 151 0
122 -123 -124 -11 12 13 16 17 18 216 0
122 -123 -124 -11 12 13 16 17 -18 200 0
122 -123 -124 -11 12 13 16 -17 18 241 0
122 -123 -124 -11 12 13 16 -17 -18 273 0
122 -123 -124 -11 12 13 -16 17 18 228 0
122 -123 -124 -11 12 13 -16 17 -18 152 0
122 -123 -124 -11 12 13 -16 -17 18 155 0
122 -123 -124 -11 12 13 -16 -17 -18 194 0
122 -123 -124 -11 12 -13 16 17 18 269 0
122 -123 -124 -11 12 -13 16 17 -18 138 0
122 -123 -124 -11 12 -13 16 -17 18 261 0
122 -123 -124 -11 12 -13 16 -17 -18 154 0
122 -123 -124 -11 12 -13 -16 17 18 196 0
122 -123 -124 -11 12 -13 -16 17 -18 268 0
122 -123 -124 -11 12 -13 -16 -17 18 225 0
122 -123 -124 -11 12 -13 -16 -17 -18 227 0
122 -123 -124 -11 -12 13 16 17 18 216 0
122 -123 -124 -11 -12 13 16 17 -18 231 0
122 -123 -124 -11 -12 13 16 -17 18 161 0
122 -123 -124 -11 -12 13 16 -17 -18 263 0
122 -123 -124 -11 -12 13 -16 17 18 176 0
122 -123 -124 -11 -12 13 -16 17 -18 159 0
122 -123 -124 -11 -12 13 -16 -17 18 156 0
122 -123 -124 -11 -12 13 -16 -17 -18 266 0
122 -123 -124 -11 -12 -13 16 17 18 137 0
122 -123 -124 -11 -12 -13 16 17 -18 185 0
122 -123 -124 -11 -12 -13 16 -17 18 131 0
122 -123 -124 -11 -12 -13 16 -17 -18 178 0
122 -123 -124 -11 -12 -13 -16 17 18 269 0
122 -123 -124 -11 -12 -13 -16 17 -18 199 0
122 -123 -124 -11 -12 -13 -16 -17 18 268 0
122 -123 -124 -11 -12 -13 -16 -17 -18 213 0
-122 123 124 11 12 13 16 17 18 222 0
-122 123 124 11 12 13 16 17 -18 155 0
-122 123 124 11 12 13 16 -17 18 183 0
-122 123 124 11 12 13 16 -17 -18 183 0
-122 123 124 11 12 13 -16 17 18 194 0
-122 123 124 11 12 13 -16 17 -18 274 0
-122 123 124 11 12 13 -16 -17 18 221 0
-122 123 124 11 12 13 -16 -17 -18 169 0
-122 123 124 11 12 -13 16 17 18 240 0
-122 123 124 11 12 -13 16 17 -18 269 0
-122 123 124 11 12 -13 16 -17 18 224 0
-122 123 124 11 12 -13 16 -17 -18 227 0
-122 123 124 11 12 -13 -16 17 18 242 0
-122 123 124 11 12 -13 -16 17 -18 198 0
-122 123 124 11 12 -13 -16 -17 18 138 0
-122 123 124 11 12 -13 -16 -17 -18 234 0
-122 123 124 11 -12 13 16 17 18 209 0
-122 123 124 11 -12 13 16 17 -18 216 0
-122 123 124 11 -12 13 16 -17 18 250 0
-122 123 124 11 -12 13 16 -17 -18 216 0
-122 123 124 11 -12 13 -16 17 18 211 0
-122 123 124 11 -12 13 -16 17 -18 238 0
-122 123 124 11 -12 13 -16 -17 18 269 0
-122 123 124 11 -12 13 -16 -17 -18 227 0
-122 123 124 11 -12 -13 16 17 18 216 0
-122 123 124 11 -12 -13 16 17 -18 133 0
-122 123 124 11 -12 -13 16 -17 18 255 0
-122 123 124 11 -12 -13 16 -17 -18 150 0
-122 123 124 11 -12 -13 -16 17 18 161 0
-122 123 124 11 -12 -13 -16 17 -18 217 0
-122 123 124 11 -12 -13 -16 -17 18 227 0
-122 123 124 11 -12 -13 -16 -17 -18 151 0
-122 123 124 -11 12 13 16 17 18 216 0
-122 123 124 -11 12 13 16 17 -18 200 0
-122 123 124 -11 12 13 16 -17 18 158 0
-122 123 124 -11 12 13 16 -17 -18 144 0
-122 123 124 -11 12 13 -16 17 18 235 0
-122 123 124 -11 12 13 -16 17 -18 152 0
-122 123 124 -11 12 13 -16 -17 18 155 0
-122 123 124 -11 12 13 -16 -17 -18 194 0
-122 123 124 -11 12 -13 16 17 18 269 0
-122 123 124 -11 12 -13 16 17 -18 138 0
-122 123 124 -11 12 -13 16 -17 18 205 0
-122 123 124 -11 12 -13 16 -17 -18 247 0
-122 123 124 -11 12 -13 -16 17 18 214 0
-122 123 124 -11 12 -13 -16 17 -18 268 0
-122 123 124 -11 12 -13 -16 -17 18 225 0
-122 123 124 -11 12 -13 -16 -17 -18 227 0
-122 123 124 -11 -12 13 16 17 18 216 0
-122 123 124 -11 -12 13 16 17 -18 177 0
-122 123 124 -11 -12 13 16 -17 18 200 0
-122 123 124 -11 -12 13 16 -17 -18 270 0
-122 123 124 -11 -12 13 -16 17 18 243 0
-122 123 124 -11 -12 13 -16 17 -18 159 0
-122 123 124 -11 -12 13 -16 -17 18 156 0
-122 123 124 -11 -12 13 -16 -17 -18 266 0
-122 123 124 -11 -12 -13 16 17 18 137 0
-122 123 124 -11 -12 -13 16 17 -18 163 0
-122 123 124 -11 -12 -13 16 -17 18 261 0
-122 123 124 -11 -12 -13 16 -17 -18 189 0
-122 123 124 -11 -12 -13 -16 17 18 269 0
-122 123 124 -11 -12 -13 -16 17 -18 199 0
-122 123 124 -11 -12 -13 -16 -17 18 268 0
-122 123 124 -11 -12 -13 -16 -17 -18 213 0
-122 123 -124 11 12 13 16 17 18 222 0
-122 123 -124 11 12 13 16 17 -18 155 0
-122 123 -124 11 12 13 16 -17 18 183 0
-122 123 -124 11 12 13 16 -17 -18 183 0
-122 123 -124 11 12 13 -16 17 18 194 0
-122 123 -124 11 12 13 -16 17 -18 152 0
-122 123 -124 11 12 13 -16 -17 18 244 0
-122 123 -124 11 12 13 -16 -17 -18 173 0
-122 123 -124 11 12 -13 16 17 18 240 0
-122 123 -124 11 12 -13 16 17 -18 269 0
-122 123 -124 11 12 -13 16 -17 18 224 0
-122 123 -124 11 12 -13 16 -17 -18 227 0
-122 123 -124 11 12 -13 -16 17 18 200 0
-122 123 -124 11 12 -13 -16 17 -18 167 0
-122 123 -124 11 12 -13 -16 -17 18 186 0
-122 123 -124 11 12 -13 -16 -17 -18 234 0
-122 123 -124 11 -12 13 16 17 18 209 0
-122 123 -124 11 -12 13 16 17 -18 216 0
-122 123 -124 11 -12 13 16 -17 18 250 0
-122 123 -124 11 -12 13 16 -17 -18 216 0
-122 123 -124 11 -12 13 -16 17 18 234 0
-122 123 -124 11 -12 13 -16 17 -18 190 0
-122 123 -124 11 -12 13 -16 -17 18 202 0
-122 123 -124 11 -12 13 -16 -17 -18 227 0
-122 123 -124 11 -12 -13 16 17 18 216 0
-122 123 -124 11 -12 -13 16 17 -18 133 0
-122 123 -124 11 -12 -13 16 -17 18 255 0
-122 123 -124 11 -12 -13 16 -17 -18 168 0
-122 123 -124 11 -12 -13 -16 17 18 200 0
-122 123 -124 11 -12 -13 -16 17 -18 139 0
-122 123 -124 11 -12 -13 -16 -17 18 264 0
-122 123 -124 11 -12 -13 -16 -17 -18 151 0
-122 123 -124 -11 12 13 16 17 18 216 0
-122 123 -124 -11 12 13 16 17 -18 200 0
-122 123 -124 -11 12 13 16 -17 18 158 0
-122 123 -124 -11 12 13 16 -17 -18 138 0
-122 123 -124 -11 12 13 -16 17 18 226 0
-122 123 -124 -11 12 13 -16 17 -18 251 0
-122 123 -124 -11 12 13 -16 -17 18 187 0
-122 123 -124 -11 12 13 -16 -17 -18 194 0
-122 123 -124 -11 12 -13 16 17 18 269 0
-122 123 -124 -11 12 -13 16 17 -18 138 0
-122 123 -124 -11 12 -13 16 -17 18 205 0
-122 123 -124 -11 12 -13 16 -17 -18 250 0
-122 123 -124 -11 12 -13 -16 17 18 245 0
-122 123 -124 -11 12 -13 -16 17 -18 267 0
-122 123 -124 -11 12 -13 -16 -17 18 192 0
-122 123 -124 -11 12 -13 -16 -17 -18 227 0
-122 123 -124 -11 -12 13 16 17 18 216 0
-122 123 -124 -11 -12 13 16 17 -18 177 0
-122 123 -124 -11 -12 13 16 -17 18 200 0
-122 123 -124 -11 -12 13 16 -17 -18 149 0
-122 123 -124 -11 -12 13 -16 17 18 223 0
-122 123 -124 -11 -12 13 -16 17 -18 252 0
-122 123 -124 -11 -12 13 -16 -17 18 156 0
-122 123 -124 -11 -12 13 -16 -17 -18 266 0
-122 123 -124 -11 -12 -13 16 17 18 137 0
-122 123 -124 -11 -12 -13 16 17 -18 163 0
-122 123 -124 -11 -12 -13 16 -17 18 205 0
-122 123 -124 -11 -12 -13 16 -17 -18 246 0
-122 123 -124 -11 -12 -13 -16 17 18 265 0
-122 123 -124 -11 -12 -13 -16 17 -18 199 0
-122 123 -124 -11 -12 -13 -16 -17 18 268 0
-122 123 -124 -11 -12 -13 -16 -17 -18 213 0
-122 -123 124 11 12 13 16 17 18 222 0
-122 -123 124 11 12 13 16 17 -18 155 0
-122 -123 124 11 12 13 16 -17 18 183 0
-122 -123 124 11 12 13 16 -17 -18 183 0
-122 -123 124 11 12 13 -16 17 18 194 0
-122 -123 124 11 12 13 -16 17 -18 152 0
-122 -123 124 11 12 13 -16 -17 18 268 0
-122 -123 124 11 12 13 -16 -17 -18 254 0
-122 -123 124 11 12 -13 16 17 18 240 0
-122 -123 124 11 12 -13 16 17 -18 269 0
-122 -123 124 11 12 -13 16 -17 18 224 0
-122 -123 124 11 12 -13 16 -17 -18 227 0
-122 -123 124 11 12 -13 -16 17 18 200 0
-122 -123 124 11 12 -13 -16 17 -18 237 0
-122 -123 124 11 12 -13 -16 -17 18 162 0
-122 -123 124 11 12 -13 -16 -17 -18 174 0
-122 -123 124 11 -12 13 16 17 18 209 0
-122 -123 124 11 -12 13 16 17 -18 216 0
-122 -123 124 11 -12 13 16 -17 18 250 0
-122 -123 124 11 -12 13 16 -17 -18 216 0
-122 -123 124 11 -12 13 -16 17 18 234 0
-122 -123 124 11 -12 13 -16 17 -18 138 0
-122 -123 124 11 -12 13 -16 -17 18 129 0
-122 -123 124 11 -12 13 -16 -17 -18 264 0
-122 -123 124 11 -12 -13 16 17 18 216 0
-122 -123 124 11 -12 -13 16 17 -18 133 0
-122 -123 124 11 -12 -13 16 -17 18 255 0
-122 -123 124 11 -12 -13 16 -17 -18 168 0
-122 -123 124 11 -12 -13 -16 17 18 200 0
-122 -123 124 11 -12 -13 -16 17 -18 217 0
-122 -123 124 11 -12 -13 -16 -17 18 136 0
-122 -123 124 11 -12 -13 -16 -17 -18 145 0
-122 -123 124 -11 12 13 16 17 18 216 0
-122 -123 124 -11 12 13 16 17 -18 200 0
-122 -123 124 -11 12 13 16 -17 18 158 0
-122 -123 124 -11 12 13 16 -17 -18 138 0
-122 -123 124 -11 12 13 -16 17 18 228 0
-122 -123 124 -11 12 13 -16 17 -18 188 0
-122 -123 124 -11 12 13 -16 -17 18 146 0
-122 -123 124 -11 12 13 -16 -17 -18 142 0
-122 -123 124 -11 12 -13 16 17 18 269 0
-122 -123 124 -11 12 -13 16 17 -18 138 0
-122 -123 124 -11 12 -13 16 -17 18 205 0
-122 -123 124 -11 12 -13 16 -17 -18 250 0
-122 -123 124 -11 12 -13 -16 17 18 163 0
-122 -123 124 -11 12 -13 -16 17 -18 262 0
-122 -123 124 -11 12 -13 -16 -17 18 212 0
-122 -123 124 -11 12 -13 -16 -17 -18 193 0
-122 -123 124 -11 -12 13 16 17 18 216 0
-122 -123 124 -11 -12 13 16 17 -18 177 0
-122 -123 124 -11 -12 13 16 -17 18 200 0
-122 -123 124 -11 -12 13 16 -17 -18 133 0
-122 -123 124 -11 -12 13 -16 17 18 176 0
-122 -123 124 -11 -12 13 -16 17 -18 135 0
-122 -123 124 -11 -12 13 -16 -17 18 165 0
-122 -123 124 -11 -12 13 -16 -17 -18 266 0
-122 -123 124 -11 -12 -13 16 17 18 137 0
-122 -123 124 -11 -12 -13 16 17 -18 163 0
-122 -123 124 -11 -12 -13 16 -17 18 205 0
-122 -123 124 -11 -12 -13 16 -17 -18 178 0
-122 -123 124 -11 -12 -13 -16 17 18 265 0
-122 -123 124 -11 -12 -13 -16 17 -18 248 0
-122 -123 124 -11 -12 -13 -16 -17 18 262 0
-122 -123 124 -11 -12 -13 -16 -17 -18 213 0
-122 -123 -124 11 12 13 16 17 18 222 0
-122 -123 -124 11 12 13 16 17 -18 155 0
-122 -123 -124 11 12 13 16 -17 18 183 0
-122 -123 -124 11 12 13 16 -17 -18 183 0
-122 -123 -124 11 12 13 -16 17 18 194 0
-122 -123 -124 11 12 13 -16 17 -18 152 0
-122 -123 -124 11 12 13 -16 -17 18 268 0
-122 -123 -124 11 12 13 -16 -17 -18 182 0
-122 -123 -124 11 12 -13 16 17 18 240 0
-122 -123 -124 11 12 -13 16 17 -18 269 0
-122 -123 -124 11 12 -13 16 -17 18 224 0
-122 -123 -124 11 12 -13 16 -17 -18 227 0
-122 -123 -124 11 12 -13 -16 17 18 200 0
-122 -123 -124 11 12 -13 -16 17 -18 237 0
-122 -123 -124 11 12 -13 -16 -17 18 138 0
-122 -123 -124 11 12 -13 -16 -17 -18 257 0
-122 -123 -124 11 -12 13 16 17 18 209 0
-122 -123 -124 11 -12 13 16 17 -18 216 0
-122 -123 -124 11 -12 13 16 -17 18 250 0
-122 -123 -124 11 -12 13 16 -17 -18 216 0
-122 -123 -124 11 -12 13 -16 17 18 234 0
-122 -123 -124 11 -12 13 -16 17 -18 138 0
-122 -123 -124 11 -12 13 -16 -17 18 269 0
-122 -123 -124 11 -12 13 -16 -17 -18 136 0
-122 -123 -124 11 -12 -13 16 17 18 216 0
-122 -123 -124 11 -12 -13 16 17 -18 133 0
-122 -123 -124 11 -12 -13 16 -17 18 255 0
-122 -123 -124 11 -12 -13 16 -17 -18 168 0
-122 -123 -124 11 -12 -13 -16 17 18 200 0
-122 -123 -124 11 -12 -13 -16 17 -18 204 0
-122 -123 -124 11 -12 -13 -16 -17 18 227 0
-122 -123 -124 11 -12 -13 -16 -17 -18 215 0
-122 -123 -124 -11 12 13 16 17 18 216 0
-122 -123 -124 -11 12 13 16 17 -18 200 0
-122 -123 -124 -11 12 13 16 -17 18 158 0
-122 -123 -124 -11 12 13 16 -17 -18 138 0
-122 -123 -124 -11 12 13 -16 17 18 228 0
-122 -123 -124 -11 12 13 -16 17 -18 152 0
-122 -123 -124 -11 12 13 -16 -17 18 155 0
-122 -123 -124 -11 12 13 -16 -17 -18 180 0
-122 -123 -124 -11 12 -13 16 17 18 269 0
-122 -123 -124 -11 12 -13 16 17 -18 138 0
-122 -123 -124 -11 12 -13 16 -17 18 205 0
-122 -123 -124 -11 12 -13 16 -17 -18 250 0
-122 -123 -124 -11 12 -13 -16 17 18 163 0
-122 -123 -124 -11 12 -13 -16 17 -18 268 0
-122 -123 -124 -11 12 -13 -16 -17 18 175 0
-122 -123 -124 -11 12 -13 -16 -17 -18 233 0
-122 -123 -124 -11 -12 13 16 17 18 216 0
-122 -123 -124 -11 -12 13 16 17 -18 177 0
-122 -123 -124 -11 -12 13 16 -17 18 200 0
-122 -123 -124 -11 -12 13 16 -17 -18 133 0
-122 -123 -124 -11 -12 13 -16 17 18 176 0
-122 -123 -124 -11 -12 13 -16 17 -18 159 0
-122 -123 -124 -11 -12 13 -16 -17 18 140 0
-122 -123 -124 -11 -12 13 -16 -17 -18 258 0
-122 -123 -124 -11 -12 -13 16 17 18 137 0
-122 -123 -124 -11 -12 -13 16 17 -18 163 0
-122 -123 -124 -11 -12 -13 16 -17 18 205 0
-122 -123 -124 -11 -12 -13 16 -17 -18 166 0
-122 -123 -124 -11 -12 -13 -16 17 18 269 0
-122 -123 -124 -11 -12 -13 -16 17 -18 141 0
-122 -123 -124 -11 -12 -13 -16 -17 18 267 0
-122 -123 -124 -11 -12 -13 -16 -17 -18 236 0
